p cnf 34 289
1 2 0
3 4 0
5 6 0
7 8 0
9 10 0
11 12 0
13 14 0
15 16 0
17 18 0
19 20 0
21 22 0
23 24 0
25 26 0
27 28 0
29 30 0
31 32 0
33 34 0
-1 -3 0
-1 -5 0
-1 -7 0
-1 -9 0
-1 -11 0
-1 -13 0
-1 -15 0
-1 -17 0
-1 -19 0
-1 -21 0
-1 -23 0
-1 -25 0
-1 -27 0
-1 -29 0
-1 -31 0
-1 -33 0
-3 -5 0
-3 -7 0
-3 -9 0
-3 -11 0
-3 -13 0
-3 -15 0
-3 -17 0
-3 -19 0
-3 -21 0
-3 -23 0
-3 -25 0
-3 -27 0
-3 -29 0
-3 -31 0
-3 -33 0
-5 -7 0
-5 -9 0
-5 -11 0
-5 -13 0
-5 -15 0
-5 -17 0
-5 -19 0
-5 -21 0
-5 -23 0
-5 -25 0
-5 -27 0
-5 -29 0
-5 -31 0
-5 -33 0
-7 -9 0
-7 -11 0
-7 -13 0
-7 -15 0
-7 -17 0
-7 -19 0
-7 -21 0
-7 -23 0
-7 -25 0
-7 -27 0
-7 -29 0
-7 -31 0
-7 -33 0
-9 -11 0
-9 -13 0
-9 -15 0
-9 -17 0
-9 -19 0
-9 -21 0
-9 -23 0
-9 -25 0
-9 -27 0
-9 -29 0
-9 -31 0
-9 -33 0
-11 -13 0
-11 -15 0
-11 -17 0
-11 -19 0
-11 -21 0
-11 -23 0
-11 -25 0
-11 -27 0
-11 -29 0
-11 -31 0
-11 -33 0
-13 -15 0
-13 -17 0
-13 -19 0
-13 -21 0
-13 -23 0
-13 -25 0
-13 -27 0
-13 -29 0
-13 -31 0
-13 -33 0
-15 -17 0
-15 -19 0
-15 -21 0
-15 -23 0
-15 -25 0
-15 -27 0
-15 -29 0
-15 -31 0
-15 -33 0
-17 -19 0
-17 -21 0
-17 -23 0
-17 -25 0
-17 -27 0
-17 -29 0
-17 -31 0
-17 -33 0
-19 -21 0
-19 -23 0
-19 -25 0
-19 -27 0
-19 -29 0
-19 -31 0
-19 -33 0
-21 -23 0
-21 -25 0
-21 -27 0
-21 -29 0
-21 -31 0
-21 -33 0
-23 -25 0
-23 -27 0
-23 -29 0
-23 -31 0
-23 -33 0
-25 -27 0
-25 -29 0
-25 -31 0
-25 -33 0
-27 -29 0
-27 -31 0
-27 -33 0
-29 -31 0
-29 -33 0
-31 -33 0
-2 -4 0
-2 -6 0
-2 -8 0
-2 -10 0
-2 -12 0
-2 -14 0
-2 -16 0
-2 -18 0
-2 -20 0
-2 -22 0
-2 -24 0
-2 -26 0
-2 -28 0
-2 -30 0
-2 -32 0
-2 -34 0
-4 -6 0
-4 -8 0
-4 -10 0
-4 -12 0
-4 -14 0
-4 -16 0
-4 -18 0
-4 -20 0
-4 -22 0
-4 -24 0
-4 -26 0
-4 -28 0
-4 -30 0
-4 -32 0
-4 -34 0
-6 -8 0
-6 -10 0
-6 -12 0
-6 -14 0
-6 -16 0
-6 -18 0
-6 -20 0
-6 -22 0
-6 -24 0
-6 -26 0
-6 -28 0
-6 -30 0
-6 -32 0
-6 -34 0
-8 -10 0
-8 -12 0
-8 -14 0
-8 -16 0
-8 -18 0
-8 -20 0
-8 -22 0
-8 -24 0
-8 -26 0
-8 -28 0
-8 -30 0
-8 -32 0
-8 -34 0
-10 -12 0
-10 -14 0
-10 -16 0
-10 -18 0
-10 -20 0
-10 -22 0
-10 -24 0
-10 -26 0
-10 -28 0
-10 -30 0
-10 -32 0
-10 -34 0
-12 -14 0
-12 -16 0
-12 -18 0
-12 -20 0
-12 -22 0
-12 -24 0
-12 -26 0
-12 -28 0
-12 -30 0
-12 -32 0
-12 -34 0
-14 -16 0
-14 -18 0
-14 -20 0
-14 -22 0
-14 -24 0
-14 -26 0
-14 -28 0
-14 -30 0
-14 -32 0
-14 -34 0
-16 -18 0
-16 -20 0
-16 -22 0
-16 -24 0
-16 -26 0
-16 -28 0
-16 -30 0
-16 -32 0
-16 -34 0
-18 -20 0
-18 -22 0
-18 -24 0
-18 -26 0
-18 -28 0
-18 -30 0
-18 -32 0
-18 -34 0
-20 -22 0
-20 -24 0
-20 -26 0
-20 -28 0
-20 -30 0
-20 -32 0
-20 -34 0
-22 -24 0
-22 -26 0
-22 -28 0
-22 -30 0
-22 -32 0
-22 -34 0
-24 -26 0
-24 -28 0
-24 -30 0
-24 -32 0
-24 -34 0
-26 -28 0
-26 -30 0
-26 -32 0
-26 -34 0
-28 -30 0
-28 -32 0
-28 -34 0
-30 -32 0
-30 -34 0
-32 -34 0
